307207
303898
300356
300139
300139
300139
300139
300139
300139
296169
296169
294723
292048
292048
292048
292048
292048
292048
290737
288985
288985
288985
288985
286187
285835
285835
285013
283298
282394
280164
279819
279819
279819
279819
279819
279819
277392
275614
275367
275367
275367
275367
275367
275338
275226
275226
275226
271170
271170
270531
266635
266635
266635
266635
266635
266635
265989
265989
265989
265989
265989
265989
265989
265243
265212
264335
258568
258568
258568
258568
257596
257596
257596
257596
257596
257596
257596
257596
252543
252543
252543
252543
252543
251592
249975
249975
249975
249975
249975
249764
249764
248698
248698
248698
248270
248270
248270
248270
247827
247816
